1 18.47 95.10
2 16.47 94.64
3 20.09 94.54
4 14.39 93.37
5 25.23 97.24
6 22.00 93.05
7 23.47 92.02
8 16.20 96.29
9 17.30 97.38
10 13.05 98.12
11 15.53 97.38
12 24.52 95.59
13 16.41 97.13
14 15.09 92.55